34
From: /home/lmoran/Ir_YIYMEA-subgraph-0-00-00-51110-51090_HYDRIDE_HYDRIDE.out
Ir -0.330258 -1.031039 -0.268176
H 1.897493 2.826142 -1.735750
C 1.020046 2.562975 -1.129894
C 1.127722 1.567404 -0.211202
C 2.252597 0.636867 -0.034992
S 1.875465 -1.009527 -0.656831
C 3.161615 -1.711313 0.332441
H 3.368132 -2.788867 0.278205
C 3.919278 -0.722972 0.897103
H 4.861221 -0.921854 1.431484
C 3.385748 0.626749 0.741913
C 3.990588 1.825447 1.404303
H 3.342112 2.716680 1.303493
H 4.975705 2.067632 0.951769
H 4.173281 1.630736 2.481378
N -0.031094 1.088886 0.510914
H 0.228213 0.905233 1.489004
C -1.306767 1.869022 0.476088
H -1.342362 2.548403 1.361919
C -2.476052 0.934162 0.647214
O -2.371897 -0.338523 0.089048
C -3.551211 -1.018423 0.328810
H -3.582281 -2.049317 -0.036392
C -4.407376 -0.194471 1.005410
H -5.424091 -0.448482 1.325882
C -3.717111 1.052298 1.216172
H -4.100195 1.941853 1.728768
C -1.392930 2.747100 -0.757248
H -2.390310 3.137875 -1.007470
C -0.285070 3.130093 -1.434621
H -0.369930 3.833498 -2.276915
H -0.264395 -1.610733 1.333705
H -0.493691 -0.470315 -1.857291
H -0.590102 -2.519700 -0.790708
